(set-logic QF_SLIA)
(declare-fun var0 () String)
(assert (not (str.in_re var0 (re.++ ((_ re.loop 2 599) (re.++ (re.union (str.to_re "a>") (re.union (str.to_re "=") (re.union (str.to_re "P$O") (str.to_re "8q{")))) (re.++ (re.union (str.to_re "H(t") (re.union (str.to_re "[S") (re.union (str.to_re "`45") (str.to_re "K)")))) (re.++ (re.union (str.to_re "l") (re.union (str.to_re "&") (re.union (str.to_re "RVW") (str.to_re "Dw")))) (re.union (str.to_re "$3A") (re.union (str.to_re "2") (re.union (str.to_re "L>@") (str.to_re "0zv")))))))) (re.++ ((_ re.loop 8 210) (re.++ (re.union (str.to_re "F") (re.union (str.to_re "y~") (re.union (str.to_re ",q") (str.to_re "b")))) (re.++ (re.union (str.to_re "HQw") (re.union (str.to_re "~") (re.union (str.to_re "Y5") (str.to_re "5Q")))) (re.++ (re.union (str.to_re "e") (re.union (str.to_re "lL") (re.union (str.to_re "l") (str.to_re "J")))) (re.union (str.to_re ":F") (re.union (str.to_re "Q") (re.union (str.to_re ">/") (str.to_re "Ru")))))))) (re.++ ((_ re.loop 20 706) (re.++ (re.union (str.to_re "{Z") (re.union (str.to_re "w") (re.union (str.to_re "&") (str.to_re ",s")))) (re.++ (re.union (str.to_re "g") (re.union (str.to_re "5") (re.union (str.to_re "b/") (str.to_re "mh")))) (re.++ (re.union (str.to_re "X5") (re.union (str.to_re "ji") (re.union (str.to_re "%p\u0022") (str.to_re ":-")))) (re.union (str.to_re "a") (re.union (str.to_re "A:@") (re.union (str.to_re "[") (str.to_re "<F")))))))) ((_ re.loop 14 944) (re.++ (re.union (str.to_re "l90") (re.union (str.to_re "|") (re.union (str.to_re "9]\u0022") (str.to_re "Xap")))) (re.++ (re.union (str.to_re "Aca") (re.union (str.to_re "-") (re.union (str.to_re "|V") (str.to_re "-r9")))) (re.++ (re.union (str.to_re "H") (re.union (str.to_re "{s") (re.union (str.to_re "<*") (str.to_re "*8")))) (re.union (str.to_re "A") (re.union (str.to_re ">uG") (re.union (str.to_re "lSC") (str.to_re "46"))))))))))))))
(assert (not (str.in_re var0 (re.++ ((_ re.loop 5 366) (re.++ (re.union (str.to_re "8") (re.union (str.to_re "Na") (re.union (str.to_re "(j2") (str.to_re "V-b")))) (re.++ (re.union (str.to_re "Vz") (re.union (str.to_re "/") (re.union (str.to_re "S>q") (str.to_re "g")))) (re.++ (re.union (str.to_re "nk<") (re.union (str.to_re "jr?") (re.union (str.to_re "rI") (str.to_re ",U")))) (re.union (str.to_re "cO{") (re.union (str.to_re "p") (re.union (str.to_re ";") (str.to_re "^{-")))))))) (re.++ ((_ re.loop 0 807) (re.++ (re.union (str.to_re "+") (re.union (str.to_re "pp|") (re.union (str.to_re "`9") (str.to_re "D1n")))) (re.++ (re.union (str.to_re "3u2") (re.union (str.to_re "Y") (re.union (str.to_re ")") (str.to_re "zlK")))) (re.++ (re.union (str.to_re "/g") (re.union (str.to_re "l.z") (re.union (str.to_re "Er}") (str.to_re "z/")))) (re.union (str.to_re "#Py") (re.union (str.to_re "lJ!") (re.union (str.to_re "3w") (str.to_re "$Y")))))))) (re.++ ((_ re.loop 17 873) (re.++ (re.union (str.to_re "(W") (re.union (str.to_re "|$G") (re.union (str.to_re "IK") (str.to_re "Kp?")))) (re.++ (re.union (str.to_re "|Z") (re.union (str.to_re "{y") (re.union (str.to_re "q") (str.to_re "tyr")))) (re.++ (re.union (str.to_re "X[") (re.union (str.to_re "Gno") (re.union (str.to_re "M") (str.to_re "\\G")))) (re.union (str.to_re "=aX") (re.union (str.to_re "/") (re.union (str.to_re "_k") (str.to_re "c{T")))))))) ((_ re.loop 3 107) (re.++ (re.union (str.to_re "%#") (re.union (str.to_re "R") (re.union (str.to_re ",>") (str.to_re "-n")))) (re.++ (re.union (str.to_re "im") (re.union (str.to_re "X5") (re.union (str.to_re "1UU") (str.to_re "GuX")))) (re.++ (re.union (str.to_re "v") (re.union (str.to_re "_a") (re.union (str.to_re "lF") (str.to_re "A-_")))) (re.union (str.to_re "fT+") (re.union (str.to_re "`w(") (re.union (str.to_re "4r/") (str.to_re "f"))))))))))))))
(assert (not (str.in_re var0 (re.++ (re.* re.allchar) (re.++ (re.union (str.to_re "<") (re.union (str.to_re ">") (re.union (str.to_re "'") (re.union (str.to_re "\u0022") (str.to_re "&"))))) (re.* re.allchar))))))
(assert (<= 50 (str.len var0)))
(check-sat)
(get-model)
